p edge 55 136
e 1 2
e 1 9
e 1 11
e 1 13
e 1 16
e 1 22
e 1 41
e 1 45
e 1 48
e 1 51
e 2 5
e 2 13
e 2 21
e 2 23
e 2 36
e 2 37
e 3 20
e 3 25
e 3 39
e 4 34
e 4 35
e 4 44
e 4 47
e 5 13
e 5 14
e 5 16
e 5 19
e 5 34
e 6 26
e 7 17
e 7 47
e 8 16
e 8 31
e 8 36
e 8 48
e 8 53
e 8 54
e 9 12
e 9 19
e 9 21
e 9 28
e 9 34
e 9 43
e 9 50
e 9 52
e 9 54
e 10 11
e 10 15
e 10 24
e 10 35
e 10 36
e 10 41
e 10 43
e 11 17
e 11 21
e 11 37
e 11 53
e 12 15
e 12 18
e 12 34
e 12 40
e 12 46
e 13 17
e 13 18
e 13 27
e 13 42
e 13 45
e 13 52
e 14 29
e 14 32
e 14 44
e 14 46
e 15 47
e 15 52
e 16 18
e 16 28
e 16 30
e 16 35
e 16 48
e 16 52
e 17 21
e 17 27
e 17 46
e 17 54
e 18 22
e 18 41
e 19 28
e 19 47
e 20 22
e 20 38
e 21 48
e 22 52
e 23 27
e 23 28
e 23 53
e 24 30
e 24 46
e 24 50
e 25 37
e 25 41
e 25 42
e 26 36
e 26 41
e 26 47
e 27 33
e 27 34
e 27 39
e 28 29
e 28 45
e 28 53
e 29 34
e 29 53
e 30 51
e 31 46
e 32 36
e 32 40
e 32 44
e 32 47
e 33 45
e 33 55
e 34 43
e 34 49
e 36 42
e 36 46
e 36 53
e 37 39
e 37 40
e 38 45
e 38 46
e 38 47
e 40 44
e 42 49
e 43 46
e 45 50
e 46 52
e 47 55
